100
100
568 14
450 24
17 5
989 8
75 10
83 21
988 17
674 23
269 17
435 14
720 4
754 2
729 7
279 14
174 20
7 10
886 24
208 17
400 1
873 17
316 4
141 6
461 4
554 5
754 20
382 15
979 24
322 9
799 23
232 16
900 10
434 5
542 22
793 8
993 7
325 18
467 18
877 18
557 24
384 13
560 15
262 5
176 18
993 9
75 11
383 25
830 24
289 25
931 9
546 8
37 12
70 4
335 7
728 17
491 15
229 6
159 21
66 25
858 9
107 7
378 3
492 2
962 8
535 23
36 23
100 17
460 25
866 17
116 24
507 8
726 8
567 10
130 21
42 5
994 5
734 8
142 10
517 7
23 17
892 1
896 8
831 5
756 8
547 18
294 13
326 23
1 19
812 22
355 14
606 13
273 14
602 5
795 25
20 4
502 18
701 12
762 25
65 19
112 10
331 6
